feasible solution found by trivial heuristic after 0.6 seconds, objective value -2.029046e+06
presolving:
(round 1, fast)       73936 del vars, 58111 del conss, 0 add conss, 0 chg bounds, 0 chg sides, 0 chg coeffs, 0 upgd conss, 0 impls, 15825 clqs
   (2.2s) running MILP presolver
   (3.3s) MILP presolver (2 rounds): 0 aggregations, 3626 fixings, 0 bound changes
(round 2, medium)     77562 del vars, 58111 del conss, 0 add conss, 0 chg bounds, 0 chg sides, 0 chg coeffs, 0 upgd conss, 0 impls, 15825 clqs
(round 3, fast)       77562 del vars, 61737 del conss, 0 add conss, 0 chg bounds, 0 chg sides, 0 chg coeffs, 0 upgd conss, 0 impls, 19052 clqs
(round 4, exhaustive) 77562 del vars, 62136 del conss, 0 add conss, 0 chg bounds, 0 chg sides, 0 chg coeffs, 0 upgd conss, 0 impls, 19052 clqs
(round 5, exhaustive) 77562 del vars, 62136 del conss, 0 add conss, 0 chg bounds, 0 chg sides, 0 chg coeffs, 19052 upgd conss, 0 impls, 19052 clqs
   (3.9s) probing: 51/124 (41.1%) - 0 fixings, 0 aggregations, 0 implications, 0 bound changes
   (3.9s) probing aborted: 50/50 successive totally useless probings
   (4.2s) symmetry computation started: requiring (bin +, int -, cont +), (fixed: bin -, int +, cont -)
   (4.2s) no symmetry present
presolving (6 rounds: 6 fast, 4 medium, 3 exhaustive):
 77562 deleted vars, 62136 deleted constraints, 0 added constraints, 0 tightened bounds, 0 added holes, 0 changed sides, 0 changed coefficients
 0 implications, 19052 cliques
presolved problem has 124 variables (124 bin, 0 int, 0 impl, 0 cont) and 19052 constraints
  19052 constraints of type <setppc>
Presolving Time: 3.84

 time | node  | left  |LP iter|LP it/n|mem/heur|mdpt |vars |cons |rows |cuts |sepa|confs|strbr|  dualbound   | primalbound  |  gap   | compl. 
t 4.3s|     1 |     0 |     0 |     - | trivial|   0 | 124 |  19k|   0 |   0 |  0 |   0 |   0 | 4.156419e+04 |-4.755680e+04 |    Inf | unknown
p 4.5s|     1 |     0 |     0 |     - |  clique|   0 | 124 |  19k|  19k|   0 |  0 |   0 |   0 | 4.156419e+04 |-3.864242e+04 |    Inf | unknown
  6.2s|     1 |     0 |  1278 |     - |   314M |   0 | 124 |  19k|  19k|   0 |  0 |   0 |   0 |-3.257273e+04 |-3.864242e+04 |  18.63%| unknown
  6.6s|     1 |     0 |  1438 |     - |   317M |   0 | 124 |  19k|  19k|   1 |  1 |   0 |   0 |-3.263559e+04 |-3.864242e+04 |  18.41%| unknown
  6.9s|     1 |     0 |  1615 |     - |   321M |   0 | 124 |  19k|  19k|   2 |  2 |   0 |   0 |-3.267048e+04 |-3.864242e+04 |  18.28%| unknown
  7.2s|     1 |     0 |  1760 |     - |   325M |   0 | 124 |  19k|  19k|   3 |  3 |   0 |   0 |-3.268739e+04 |-3.864242e+04 |  18.22%| unknown
  7.4s|     1 |     0 |  1884 |     - |   327M |   0 | 124 |  19k|  19k|   4 |  4 |   0 |   0 |-3.269582e+04 |-3.864242e+04 |  18.19%| unknown
  7.6s|     1 |     0 |  2002 |     - |   331M |   0 | 124 |  19k|  19k|   5 |  5 |   0 |   0 |-3.270069e+04 |-3.864242e+04 |  18.17%| unknown
  8.0s|     1 |     0 |  2134 |     - |   333M |   0 | 124 |  19k|  19k|   6 |  6 |   0 |   0 |-3.270378e+04 |-3.864242e+04 |  18.16%| unknown
  8.3s|     1 |     0 |  2251 |     - |   337M |   0 | 124 |  19k|  19k|   7 |  7 |   0 |   0 |-3.270639e+04 |-3.864242e+04 |  18.15%| unknown
  8.6s|     1 |     0 |  2371 |     - |   339M |   0 | 124 |  19k|  19k|   8 |  8 |   0 |   0 |-3.270876e+04 |-3.864242e+04 |  18.14%| unknown
  8.8s|     1 |     0 |  2481 |     - |   342M |   0 | 124 |  19k|  19k|   9 |  9 |   0 |   0 |-3.271006e+04 |-3.864242e+04 |  18.14%| unknown
  9.1s|     1 |     0 |  2606 |     - |   344M |   0 | 124 |  19k|  19k|  10 | 10 |   0 |   0 |-3.271191e+04 |-3.864242e+04 |  18.13%| unknown
  9.2s|     1 |     0 |  2722 |     - |   346M |   0 | 124 |  19k|  19k|  11 | 11 |   0 |   0 |-3.271310e+04 |-3.864242e+04 |  18.13%| unknown
  9.3s|     1 |     0 |  2752 |     - |   348M |   0 | 124 |  19k|  19k|  12 | 12 |   0 |   0 |-3.271338e+04 |-3.864242e+04 |  18.12%| unknown
 time | node  | left  |LP iter|LP it/n|mem/heur|mdpt |vars |cons |rows |cuts |sepa|confs|strbr|  dualbound   | primalbound  |  gap   | compl. 
  9.4s|     1 |     0 |  2796 |     - |   350M |   0 | 124 |  19k|  19k|  13 | 13 |   0 |   0 |-3.271384e+04 |-3.864242e+04 |  18.12%| unknown
  9.6s|     1 |     0 |  2881 |     - |   352M |   0 | 124 |  19k|  19k|  14 | 14 |   0 |   0 |-3.271471e+04 |-3.864242e+04 |  18.12%| unknown
  9.7s|     1 |     0 |  2943 |     - |   354M |   0 | 124 |  19k|  19k|  15 | 15 |   0 |   0 |-3.271526e+04 |-3.864242e+04 |  18.12%| unknown
  9.8s|     1 |     0 |  2954 |     - |   356M |   0 | 124 |  19k|  19k|  16 | 16 |   0 |   0 |-3.271532e+04 |-3.864242e+04 |  18.12%| unknown
  9.9s|     1 |     0 |  2986 |     - |   358M |   0 | 124 |  19k|  19k|  17 | 17 |   0 |   0 |-3.271566e+04 |-3.864242e+04 |  18.12%| unknown
 10.0s|     1 |     0 |  3008 |     - |   360M |   0 | 124 |  19k|  19k|  18 | 18 |   0 |   0 |-3.271574e+04 |-3.864242e+04 |  18.12%| unknown
 10.1s|     1 |     0 |  3073 |     - |   362M |   0 | 124 |  19k|  19k|  20 | 19 |   0 |   0 |-3.271673e+04 |-3.864242e+04 |  18.11%| unknown
 10.3s|     1 |     0 |  3108 |     - |   364M |   0 | 124 |  19k|  19k|  21 | 20 |   0 |   0 |-3.271714e+04 |-3.864242e+04 |  18.11%| unknown
d12.3s|     1 |     0 |  4725 |     - |conflict|   0 | 124 |  19k|  19k|   0 | 20 |   1 |   0 |-3.271714e+04 |-3.801561e+04 |  16.19%| unknown
 12.4s|     1 |     0 |  4725 |     - |   365M |   0 | 124 |  19k|  19k|  21 | 20 |   1 |   0 |-3.271714e+04 |-3.801561e+04 |  16.19%| unknown
 12.5s|     1 |     0 |  4764 |     - |   365M |   0 | 124 |  19k|  19k|  23 | 21 |   1 |   0 |-3.271745e+04 |-3.801561e+04 |  16.19%| unknown
 12.5s|     1 |     0 |  4771 |     - |   365M |   0 | 124 |  19k|  19k|  24 | 22 |   1 |   0 |-3.271747e+04 |-3.801561e+04 |  16.19%| unknown
 29.5s|     1 |     2 |  4771 |     - |   365M |   0 | 124 |  19k|  19k|  24 | 22 |   1 |  20 |-3.306987e+04 |-3.801561e+04 |  14.96%| unknown
*30.2s|     2 |     1 |  5354 |2205.0 |strongbr|   1 | 124 |  19k|  19k|  24 |  1 |   1 |  20 |-3.306987e+04 |-3.675781e+04 |  11.15%| unknown
*35.4s|     2 |     1 |  5354 |2205.0 |strongbr|   1 | 124 |  19k|  19k|  24 |  1 |   1 |  36 |-3.306987e+04 |-3.574237e+04 |   8.08%| unknown

SCIP Status        : problem is solved [optimal solution found]
Solving Time (sec) : 48.92
Solving Nodes      : 3
Primal Bound       : -3.57423749089346e+04 (62 solutions)
Dual Bound         : -3.57423749089346e+04
Gap                : 0.00 %
Solve Status: optimal
Solve Time: 49.26 seconds
